Minimize

16 x_0_0 + 17 x_1_0 + 9 x_2_0 + 10 x_3_0 + 11 x_4_0 + 13 x_5_0 + 14 x_6_0


Subject To

a0: x_0_0 + x_0_1 + x_0_2 = 1
a1: x_1_0 + x_1_1 + x_1_2 = 1
a2: x_2_0 + x_2_1 + x_2_2 = 1
a3: x_3_0 + x_3_1 + x_3_2 = 1
a4: x_4_0 + x_4_1 + x_4_2 = 1
a5: x_5_0 + x_5_1 + x_5_2 = 1
a6: x_6_0 + x_6_1 + x_6_2 = 1
b0: 16 x_0_0 + 17 x_1_0 + 9 x_2_0 + 10 x_3_0 + 11 x_4_0 + 13 x_5_0 + 14 x_6_0 - 16 x_0_1 - 17 x_1_1 - 9 x_2_1 - 10 x_3_1 - 11 x_4_1 - 13 x_5_1 - 14 x_6_1 = 0
c0: 16 x_0_1 + 17 x_1_1 + 9 x_2_1 + 10 x_3_1 + 11 x_4_1 + 13 x_5_1 + 14 x_6_1 - 16 x_0_2 - 17 x_1_2 - 9 x_2_2 - 10 x_3_2 - 11 x_4_2 - 13 x_5_2 - 14 x_6_2 = 0




Binary

x_0_0 x_0_1 x_0_2 x_1_0 x_1_1 x_1_2 x_2_0 x_2_1 x_2_2 x_3_0 x_3_1 x_3_2 x_4_0 x_4_1 x_4_2 x_5_0 x_5_1 x_5_2 x_6_0 x_6_1 x_6_2

 
End
